(set-info :smt-lib-version 2.6)
(set-logic LRA)
(set-info :source |
   Scholl, Christoph; Disch, Stefan; Pigorsch, Florian and Kupferschmid, 
   Stefan; Using an SMT Solver and Craig Interpolation to Detect and Remove 
   Redundant Linear Constraints in Representations of Non-Convex Polyhedra.
   Proceedings of 6th International Workshop on Satisfiability Modulo
   Theories, Princeton, USA, July 2008.
   <http://abs.informatik.uni-freiburg.de/smtbench/>
|)
(set-info :category "random")
(set-info :status unsat)
(declare-fun y1 () Real)
(declare-fun y2 () Real)
(declare-fun y3 () Real)
(declare-fun x1 () Real)
(declare-fun y4 () Real)
(assert (and (and (exists ((?y1 Real)) (and (or (exists ((?y2 Real)) (and (and (exists ((?y3 Real)) (and (>= (+ (+ (+ (* (- 86) ?y3) (* (- 87) ?y2)) (* (- 20) ?y1)) (* (- 82) x1)) 19) (= (+ (+ (* 10 ?y2) (* 14 ?y1)) (* 25 x1)) 14))) (forall ((?y3 Real)) (forall ((?y4 Real)) (>= (+ (+ (+ (+ (* (- 23) ?y4) (* (- 57) ?y3)) (* (- 60) ?y2)) (* 20 ?y1)) (* 53 x1)) (- 80))))) (exists ((?y3 Real)) (and (forall ((?y4 Real)) (< (+ (+ (+ (+ (* 50 ?y4) (* 32 ?y3)) (* 46 ?y2)) (* 20 ?y1)) (* (- 64) x1)) (- 50))) (exists ((?y4 Real)) (< (+ (+ (* (- 80) ?y4) (* 5 ?y1)) (* 28 x1)) (- 86))))))) (and (or (= (* (- 98) ?y1) 69) (= (* (- 94) ?y1) 63)) (or (and (> (+ (* (- 30) ?y1) (* 79 x1)) 0) (>= (+ (* 8 ?y1) (* 93 x1)) (- 74))) (not (= (+ (* (- 97) ?y1) (* (- 24) x1)) 15))))) (exists ((?y2 Real)) (exists ((?y3 Real)) (forall ((?y4 Real)) (let ((?v_1 (* 62 ?y1)) (?v_0 (* (- 22) ?y3))) (and (or (> (+ (+ (+ (+ (* 50 ?y4) (* 72 ?y3)) (* (- 6) ?y2)) (* (- 35) ?y1)) (* (- 80) x1)) (- 4)) (or (< (+ (* (- 73) ?y4) ?v_0) (- 2)) (= (+ (+ (+ (* 88 ?y4) (* (- 82) ?y2)) (* (- 8) ?y1)) (* 7 x1)) 0))) (or (and (= (+ (+ (+ ?v_0 (* (- 69) ?y2)) (* (- 49) ?y1)) (* 63 x1)) (- 4)) (>= (+ (+ (* 65 ?y4) (* (- 71) ?y2)) ?v_1) (- 65))) (< (+ (+ (+ (* 20 ?y4) (* (- 42) ?y3)) ?v_1) (* (- 76) x1)) (- 92)))))))))) (forall ((?y1 Real)) (exists ((?y3 Real)) (forall ((?y4 Real)) (and (and (or (= (* (- 91) x1) 0) (>= (+ (+ (+ (* 40 ?y4) (* 95 ?y3)) (* 61 ?y1)) (* (- 38) x1)) 88)) (and (not (= (+ (+ (+ (* (- 66) ?y4) (* 75 ?y3)) (* (- 71) ?y1)) (* (- 2) x1)) 30)) (= (+ (+ (* 76 ?y4) (* (- 40) ?y1)) (* 79 x1)) 8))) (and (and (not (= (+ (+ (+ (* (- 86) ?y4) (* (- 26) ?y3)) (* (- 75) ?y1)) (* 61 x1)) (- 90))) (> (+ (+ (* 31 ?y3) (* 72 ?y1)) (* (- 65) x1)) 0)) (or (= (+ (+ (* 44 ?y3) (* (- 50) ?y1)) (* 47 x1)) 0) (>= (+ (* (- 51) ?y3) (* (- 63) ?y1)) (- 47))))))))) (or (or (exists ((?y1 Real)) (forall ((?y2 Real)) (or (and (or (and (forall ((?y3 Real)) (<= (+ (+ (+ (* (- 20) ?y3) (* 38 ?y2)) (* (- 61) ?y1)) (* 93 x1)) (- 91))) (or (>= (+ (* (- 75) ?y1) (* (- 53) x1)) (- 23)) (= (+ (+ (* (- 33) ?y2) (* (- 68) ?y1)) (* (- 79) x1)) 0))) (exists ((?y4 Real)) (not (= (+ (+ (* (- 70) ?y4) (* (- 98) ?y2)) (* 33 ?y1)) 0)))) (forall ((?y3 Real)) (or (and (not (= (+ (+ (* 77 ?y2) (* 98 ?y1)) (* (- 82) x1)) (- 54))) (= (+ (+ (+ (* (- 18) ?y3) (* (- 30) ?y2)) (* 82 ?y1)) (* (- 100) x1)) (- 25))) (> (+ (+ (+ (* 23 ?y3) (* (- 82) ?y2)) (* (- 24) ?y1)) (* (- 67) x1)) 32)))) (and (forall ((?y3 Real)) (or (>= (+ (+ (+ (* 67 ?y3) (* 4 ?y2)) (* (- 25) ?y1)) (* 59 x1)) 82) (and (<= (* (- 33) ?y1) (- 31)) (>= (+ (+ (* 65 ?y3) (* (- 30) ?y2)) (* (- 98) x1)) (- 2))))) (forall ((?y3 Real)) (not (= (+ (+ (* 75 ?y3) (* (- 62) ?y2)) (* 24 ?y1)) 33))))))) (exists ((?y1 Real)) (forall ((?y3 Real)) (forall ((?y4 Real)) (let ((?v_2 (* 14 ?y3))) (or (or (or (= (+ (+ (+ (* (- 17) ?y4) (* (- 17) ?y3)) (* 4 ?y1)) (* 99 x1)) (- 33)) (> (+ (+ (* (- 1) ?y3) (* 53 ?y1)) (* 62 x1)) (- 79))) (and (not (= (+ (+ (* 78 ?y3) (* 25 ?y1)) (* 98 x1)) 53)) (>= (+ (+ (+ (* (- 61) ?y4) (* (- 13) ?y3)) (* 71 ?y1)) (* (- 78) x1)) (- 41)))) (and (or (<= (+ (+ ?v_2 (* (- 76) ?y1)) (* 58 x1)) 0) (< (+ (+ (* 14 ?y4) (* (- 96) ?y1)) (* (- 93) x1)) 79)) (or (>= (+ (* 11 ?y4) ?v_2) 40) (>= (+ (+ (* 23 ?y4) (* (- 10) ?y3)) (* 59 ?y1)) (- 5)))))))))) (forall ((?y1 Real)) (and (and (and (exists ((?y3 Real)) (and (or (<= (* 3 x1) (- 78)) (<= (+ (* (- 98) ?y3) (* 6 ?y1)) 0)) (< (+ (+ (* 27 ?y3) (* (- 80) ?y1)) (* (- 16) x1)) (- 68)))) (exists ((?y3 Real)) (or (< (+ (* 5 ?y3) (* (- 70) ?y1)) 97) (>= (+ (+ (* 61 ?y3) (* (- 74) ?y1)) (* (- 3) x1)) (- 92))))) (exists ((?y3 Real)) (exists ((?y4 Real)) (or (and (<= (+ (+ (+ (* (- 11) ?y4) (* (- 78) ?y3)) (* 70 ?y1)) (* 71 x1)) (- 21)) (not (= (+ (* 85 ?y4) (* (- 79) ?y3)) (- 25)))) (< (+ (+ (* (- 87) ?y4) (* 37 ?y3)) (* (- 31) x1)) 79))))) (forall ((?y2 Real)) (or (exists ((?y3 Real)) (and (or (forall ((?y4 Real)) (not (= (+ (+ (* (- 85) ?y3) (* (- 42) ?y2)) (* (- 20) ?y1)) 3))) (forall ((?y4 Real)) (not (= (+ (+ (+ (* 48 ?y4) (* 56 ?y2)) (* 43 ?y1)) (* (- 1) x1)) 51)))) (forall ((?y4 Real)) (< (+ (+ (+ (* (- 69) ?y4) (* (- 27) ?y3)) (* 71 ?y1)) (* 92 x1)) 4)))) (or (and (and (and (<= (* 78 ?y2) 92) (= (+ (* 89 ?y2) (* 50 ?y1)) (- 40))) (exists ((?y3 Real)) (> (+ (+ (* (- 10) ?y3) (* (- 100) ?y1)) (* 88 x1)) (- 87)))) (forall ((?y3 Real)) (> (+ (+ (* (- 90) ?y2) (* (- 18) ?y1)) (* 19 x1)) (- 79)))) (or (> (+ (* 23 ?y2) (* (- 65) ?y1)) 0) (and (and (<= (* (- 94) ?y2) 38) (> (* 6 ?y1) 0)) (< (+ (+ (* 15 ?y2) (* (- 60) ?y1)) (* (- 55) x1)) (- 71))))))))))))
(check-sat)
(exit)
